
  20    0


   0  13 2 3 4 5 7 8 9 10 15 16 17 18 19 
   1   2 12 6 
   8   2 12 6 
   8   2 12 11 
   7   2 12 11 
   6   1 11 
   8   1 14 
   1   1 13 
  10   1 12 
   4   1 11 
   7   1 20
   5   1 20
   3   1 20
   2   1 20
   6   1 20
   5   1 20
   8   1 20
   3   1 20
   4   1 20
   0   0 
